50
500 500
1 346 180
2 334 670
3 333 437
4 329 532
5 307 574
6 306 54
7 303 946
8 301 476
9 292 839
10 289 131
11 285 935
12 279 737
13 275 236
14 260 21
15 260 219
16 259 172
17 254 196
18 247 436
19 240 731
20 222 518
21 215 164
22 213 526
23 212 396
24 210 476
25 202 588
26 190 895
27 189 873
28 186 240
29 184 448
30 179 510
31 162 607
32 161 267
33 156 580
34 154 597
35 151 311
36 134 849
37 128 102
38 126 386
39 123 153
40 121 224
41 114 752
42 107 615
43 106 133
44 93 843
45 85 918
46 82 958
47 78 330
48 70 968
49 53 268
50 52 774
